TCS_Benchmarks/redos_fix/regexlib1_output_distinct_2750_2749_86_0.txt
(JANUARY|FEBRUARY|MARCH|MAY|JUNE|JULY|SEPTEMBER|OCTOBER|NOVEMBER|DECEMBER|[ ]|,|\/|[0-9]|APRIL)+(JANUARY|FEBRUARY|MARCH|MAY|JUNE|JULY|SEPTEMBER|OCTOBER|NOVEMBER|DECEMBER|[ ]|,|\/|[0-9]|AUGUST)+
(JANUARY|FEBRUARY|MARCH|MAY|JUNE|JULY|SEPTEMBER|OCTOBER|NOVEMBER|DECEMBER|[ ]|,|\/|[0-9]|APRIL)+
A.*